(set-logic QF_UF)
(declare-fun A0 () Bool)
(declare-fun A1 () Bool)
(declare-fun A2 () Bool)
(declare-fun A3 () Bool)
(declare-fun A4 () Bool)
(declare-fun A5 () Bool)
(declare-fun A6 () Bool)
(declare-fun A8 () Bool)
(declare-fun A9 () Bool)
(declare-fun A10 () Bool)
(declare-fun A11 () Bool)
(declare-fun A12 () Bool)
(declare-fun A13 () Bool)
(declare-fun A14 () Bool)
(declare-fun A15 () Bool)
(declare-fun A16 () Bool)
(declare-fun A17 () Bool)
(declare-fun A18 () Bool)
(declare-fun A19 () Bool)
(declare-fun A20 () Bool)
(declare-fun A21 () Bool)
(declare-fun A22 () Bool)
(declare-fun A23 () Bool)
(declare-fun A24 () Bool)
(assert (let ((.def_0 (not A23))) (let ((.def_1 (not A9))) (let ((.def_2 (and .def_1 .def_0))) (let ((.def_3 (not A18))) (let ((.def_4 (= .def_3 A14))) (let ((.def_5 (and .def_4 .def_2))) (let ((.def_6 (not A3))) (let ((.def_7 (or .def_6 A2))) (let ((.def_8 (not A17))) (let ((.def_9 (not A13))) (let ((.def_10 (and .def_9 .def_8))) (let ((.def_11 (not .def_10))) (let ((.def_12 (and .def_11 .def_7))) (let ((.def_13 (or .def_12 .def_5))) (let ((.def_14 (or A15 A18))) (let ((.def_15 (not .def_14))) (let ((.def_16 (not A22))) (let ((.def_17 (or A8 .def_16))) (let ((.def_18 (or .def_17 .def_15))) (let ((.def_19 (not A14))) (let ((.def_20 (or .def_19 .def_6))) (let ((.def_21 (not .def_20))) (let ((.def_22 (not A11))) (let ((.def_23 (and .def_22 .def_8))) (let ((.def_24 (not .def_23))) (let ((.def_25 (or .def_24 .def_21))) (let ((.def_26 (not .def_25))) (let ((.def_27 (and .def_26 .def_18))) (let ((.def_28 (not .def_27))) (let ((.def_29 (and .def_28 .def_13))) (let ((.def_30 (not .def_29))) (let ((.def_31 (not A10))) (let ((.def_32 (or .def_9 .def_31))) (let ((.def_33 (not .def_32))) (let ((.def_34 (not A5))) (let ((.def_35 (or A23 .def_34))) (let ((.def_36 (or .def_35 .def_33))) (let ((.def_37 (not .def_36))) (let ((.def_38 (and .def_8 A21))) (let ((.def_39 (not .def_38))) (let ((.def_40 (and A17 .def_1))) (let ((.def_41 (or .def_40 .def_39))) (let ((.def_42 (not .def_41))) (let ((.def_43 (or .def_42 .def_37))) (let ((.def_44 (not A12))) (let ((.def_45 (= A22 .def_44))) (let ((.def_46 (not .def_45))) (let ((.def_47 (= .def_0 .def_16))) (let ((.def_48 (not .def_47))) (let ((.def_49 (and .def_48 .def_46))) (let ((.def_50 (not .def_49))) (let ((.def_51 (not A1))) (let ((.def_52 (and A12 .def_51))) (let ((.def_53 (and A19 A15))) (let ((.def_54 (= .def_53 .def_52))) (let ((.def_55 (or .def_54 .def_50))) (let ((.def_56 (not .def_55))) (let ((.def_57 (= .def_56 .def_43))) (let ((.def_58 (= .def_57 .def_30))) (let ((.def_59 (or .def_3 A3))) (let ((.def_60 (not .def_59))) (let ((.def_61 (and .def_51 .def_19))) (let ((.def_62 (not .def_61))) (let ((.def_63 (and .def_62 .def_60))) (let ((.def_64 (and A12 A21))) (let ((.def_65 (not A8))) (let ((.def_66 (and .def_19 .def_65))) (let ((.def_67 (and .def_66 .def_64))) (let ((.def_68 (or .def_67 .def_63))) (let ((.def_69 (= .def_51 A14))) (let ((.def_70 (not .def_69))) (let ((.def_71 (not A4))) (let ((.def_72 (or A17 .def_71))) (let ((.def_73 (and .def_72 .def_70))) (let ((.def_74 (not A16))) (let ((.def_75 (not A24))) (let ((.def_76 (and .def_75 .def_74))) (let ((.def_77 (and .def_8 A2))) (let ((.def_78 (and .def_77 .def_76))) (let ((.def_79 (= .def_78 .def_73))) (let ((.def_80 (or .def_79 .def_68))) (let ((.def_81 (not .def_80))) (let ((.def_82 (not A20))) (let ((.def_83 (and .def_82 A2))) (let ((.def_84 (and .def_65 .def_82))) (let ((.def_85 (or .def_84 .def_83))) (let ((.def_86 (not .def_85))) (let ((.def_87 (not A21))) (let ((.def_88 (and .def_87 .def_8))) (let ((.def_89 (not .def_88))) (let ((.def_90 (or .def_22 A17))) (let ((.def_91 (and .def_90 .def_89))) (let ((.def_92 (and .def_91 .def_86))) (let ((.def_93 (and A0 .def_51))) (let ((.def_94 (not .def_93))) (let ((.def_95 (and .def_16 A6))) (let ((.def_96 (and .def_95 .def_94))) (let ((.def_97 (or A24 .def_0))) (let ((.def_98 (= A15 A4))) (let ((.def_99 (not .def_98))) (let ((.def_100 (or .def_99 .def_97))) (let ((.def_101 (not .def_100))) (let ((.def_102 (or .def_101 .def_96))) (let ((.def_103 (and .def_102 .def_92))) (let ((.def_104 (not .def_103))) (let ((.def_105 (= .def_104 .def_81))) (let ((.def_106 (not .def_105))) (let ((.def_107 (and .def_106 .def_58))) (let ((.def_108 (not .def_107))) .def_108))))))))))))))))))))))))))))))))))))))))))))))))))))))))))))))))))))))))))))))))))))))))))))))))))))))))))))))
(check-sat)
